p cnf 36 117
-1 2 -3 0
1 -2 -3 0
-1 -2 3 0
1 2 3 0
5 3 0
5 -4 0
-3 4 -5 0
7 5 0
7 -6 0
-5 6 -7 0
-9 8 0
-9 -2 0
-8 2 9 0
2 10 -11 0
-2 -10 -11 0
2 -10 11 0
-2 10 11 0
12 13 -14 0
-12 -13 -14 0
12 -13 14 0
-12 13 14 0
14 15 -16 0
-14 -15 -16 0
14 -15 16 0
-14 15 16 0
-11 -16 -17 0
11 16 -17 0
-11 16 17 0
11 -16 17 0
17 -18 -19 0
-17 18 -19 0
17 18 19 0
-17 -18 19 0
9 19 -20 0
-9 -19 -20 0
9 -19 20 0
-9 19 20 0
21 4 0
21 -10 0
-4 10 -21 0
22 -4 0
22 -21 0
4 21 -22 0
23 -8 0
23 22 0
8 -22 -23 0
8 10 -24 0
-8 -10 -24 0
8 -10 24 0
-8 10 24 0
-8 2 -25 0
8 -2 -25 0
-8 -2 25 0
8 2 25 0
-26 -24 0
-26 -25 0
24 25 26 0
27 23 0
27 26 0
-23 -26 -27 0
-28 -20 0
-28 27 0
20 -27 28 0
-29 15 0
-29 -11 0
-15 11 29 0
-30 -29 0
-30 15 0
29 -15 30 0
31 -1 0
31 16 0
1 -16 -31 0
32 30 0
32 -31 0
-30 31 -32 0
-29 8 -33 0
29 -8 -33 0
-29 -8 33 0
29 8 33 0
-34 32 0
-34 33 0
-32 -33 34 0
35 -28 0
35 -34 0
28 34 -35 0
7 -35 -36 0
-7 35 -36 0
7 35 36 0
-7 -35 36 0
13 15 16 -9 7 0
16 -21 9 0
-23 -6 26 11 0
-12 5 36 -27 -10 0
-36 -12 -11 -10 0
-10 34 -21 0
29 6 -26 0
32 21 0
-30 16 -9 0
5 -35 -14 0
-28 17 14 0
21 29 22 0
22 14 26 0
-13 30 -4 0
-35 8 -6 13 0
-18 -8 0
-13 27 -1 -36 23 -5 0
18 12 0
19 17 27 36 0
-11 25 -15 34 0
24 12 0
-21 -33 -22 0
-6 8 35 -1 0
-17 -16 -32 -14 -13 0
34 -28 20 0
-19 -28 0
18 20 12 -2 0
36 0
